139	32	4	79	
10	10	10	10

0	0	0	0	0	0	6	1	4	6	9	29	30
1	1	0	1	1	4	4	27	18	15	2
2	4	0	1	6	2	3	25	12	3
3	3	0	2	4	3	2	26	5
4	0	1	3	4	5	2	25	8
5	0	5	3	5	3	1	7
6	5	0	2	3	3	2	28	10
7	5	3	6	0	10	1	8
8	5	3	0	4	8	1	10
9	5	3	1	0	2	1	10
10	0	3	2	2	10	1	11
11	0	3	3	2	6	3	24	23	13
12	5	0	6	1	4	2	23	13
13	2	0	3	6	2	1	14
14	4	4	0	4	6	1	16
15	4	4	5	0	7	1	16
16	0	5	4	2	2	2	22	17
17	3	0	5	4	4	1	19
18	2	6	0	5	4	2	23	21
19	2	4	5	0	2	1	20
20	0	5	6	9	9	1	21
21	0	3	5	5	5	1	31
22	0	2	4	2	4	1	31
23	3	0	4	2	1	1	31
24	0	4	6	8	5	1	31
25	6	7	0	2	3	1	31
26	0	2	3	4	4	1	31
27	6	0	10	3	5	1	31
28	8	3	4	0	6	1	31
29	2	8	6	0	2	1	31
30	5	6	0	8	8	1	31
31	0	0	0	0	0	0
